c CNF file corresponding to a (partial) station packing problem.
p cnf 5595 129
1 2 3 4 5 6 7 8 9 10 11 12 13 14 0
-1 -2 0
-1 -3 0
-1 -4 0
-1 -5 0
-1 -6 0
-1 -7 0
-1 -8 0
-1 -9 0
-1 -10 0
-1 -11 0
-1 -12 0
-1 -13 0
-1 -14 0
-2 -3 0
-2 -4 0
-2 -5 0
-2 -6 0
-2 -7 0
-2 -8 0
-2 -9 0
-2 -10 0
-2 -11 0
-2 -12 0
-2 -13 0
-2 -14 0
-3 -4 0
-3 -5 0
-3 -6 0
-3 -7 0
-3 -8 0
-3 -9 0
-3 -10 0
-3 -11 0
-3 -12 0
-3 -13 0
-3 -14 0
-4 -5 0
-4 -6 0
-4 -7 0
-4 -8 0
-4 -9 0
-4 -10 0
-4 -11 0
-4 -12 0
-4 -13 0
-4 -14 0
-5 -6 0
-5 -7 0
-5 -8 0
-5 -9 0
-5 -10 0
-5 -11 0
-5 -12 0
-5 -13 0
-5 -14 0
-6 -7 0
-6 -8 0
-6 -9 0
-6 -10 0
-6 -11 0
-6 -12 0
-6 -13 0
-6 -14 0
-7 -8 0
-7 -9 0
-7 -10 0
-7 -11 0
-7 -12 0
-7 -13 0
-7 -14 0
-8 -9 0
-8 -10 0
-8 -11 0
-8 -12 0
-8 -13 0
-8 -14 0
-9 -10 0
-9 -11 0
-9 -12 0
-9 -13 0
-9 -14 0
-10 -11 0
-10 -12 0
-10 -13 0
-10 -14 0
-11 -12 0
-11 -13 0
-11 -14 0
-12 -13 0
-12 -14 0
-13 -14 0
5587 5588 5589 5590 5591 5592 5593 5594 5595 0
-5587 -5588 0
-5587 -5589 0
-5587 -5590 0
-5587 -5591 0
-5587 -5592 0
-5587 -5593 0
-5587 -5594 0
-5587 -5595 0
-5588 -5589 0
-5588 -5590 0
-5588 -5591 0
-5588 -5592 0
-5588 -5593 0
-5588 -5594 0
-5588 -5595 0
-5589 -5590 0
-5589 -5591 0
-5589 -5592 0
-5589 -5593 0
-5589 -5594 0
-5589 -5595 0
-5590 -5591 0
-5590 -5592 0
-5590 -5593 0
-5590 -5594 0
-5590 -5595 0
-5591 -5592 0
-5591 -5593 0
-5591 -5594 0
-5591 -5595 0
-5592 -5593 0
-5592 -5594 0
-5592 -5595 0
-5593 -5594 0
-5593 -5595 0
-5594 -5595 0
